Results/Experiment 1 Results/New Benchmark/RES_20/output_p1_0.25_p2_0.00_n_20_08.txt
solutions: 0 nodes: 0  modelTime: 127  solveTime: 9  totalTime: 139  modelSize: 7358  readTime: 3 matchingSize: 0
